NAME : rnd8_20.tsp
TYPE : TSP
DIMENSION : 20
EDGE_WEIGHT_TYPE : EUC_2D
NODE_COORD_SECTION
1 917 265
2 521 321
3 575 332
4 30 670
5 375 581
6 832 531
7 685 22
8 19 418
9 729 216
10 167 681
11 496 161
12 939 856
13 527 922
14 880 832
15 244 152
16 852 416
17 272 136
18 160 117
19 376 424
20 892 171
